&CONTROL
  title = '# pentacene - C22 H14'
  pseudo_dir = './'
    calculation = 'md'
    nstep = 2600,
    dt = 20,
    nonadiabatic = .true.
/
 
&SYSTEM
  nat= 36
  ntyp= 2
  ibrav= 0
  ecutwfc = 40,
  ecutrho = 400
  nbnd = 65
  occupations =  'smearing',
  smearing    =  'gaussian',
  degauss     =  0.03,
  vdw_corr = 'dft-d2',
    fde_kin_funct = 'revAPBEK'
    fde_split_mix = .true.
    fde_cell_split(1) = 0.33
    fde_cell_split(2) = 0.33
    fde_cell_split(3) = 1
    fde_nba_beg = 46 !homo=51
    fde_nba_end = 57 !lumo=52
     nosym = .true.
/
 
&ELECTRONS
    diagonalization='david'
    mixing_mode = 'plain'
    mixing_beta = 0.7
    conv_thr =  1.0d-9
    electron_maxstep =500
    use_gaussians = .true.

/

/
 
&IONS
  ion_dynamics = 'verlet'
  ion_temperature = 'rescaling'
  tempw = 300
/
 
&CELL
/
 
ATOMIC_SPECIES
 H   1.00    h_pbe_v1.4.uspp.F.UPF
 C   12.00   c_pbe_v1.2.uspp.F.UPF
 
K_POINTS gamma

CELL_PARAMETERS angstrom
   18.68522100    0.00000000    0.00000000
    0.17227471   26.17960718    0.00000000
    0.75744653    2.67565873   15.57640494
ATOMIC_POSITIONS angstrom
C      11.448791999999999     25.213989999999999     15.441637999999999
C      10.221458000000000     22.230229999999999      1.152794000000000
C      10.915697000000000     22.623456999999998      2.319202000000000
C      10.445489999999999     22.313371000000000      3.595206000000000
C      11.141781999999999     22.709340999999998      4.781240000000000
C      10.658841000000001     22.384737000000001      6.023629000000000
C       9.446724000000000     21.641940000000002      6.160624000000000
C       8.744154000000000     21.245056000000002      5.050649000000000
C       9.207808999999999     21.561924000000001      3.734116000000000
C       8.511697000000000     21.171924000000001      2.589998000000000
C       8.976120999999999     21.482977999999999      1.292047000000000
H      12.385081000000000     25.773364999999998     15.337213999999999
H      11.850148000000001     23.185959000000000      2.213018000000000
H      12.071536999999999     23.278327000000001      4.676379000000000
H      11.206792999999999     22.698004000000001      6.918260000000000
H       9.076525000000000     21.390570000000000      7.160286000000000
H       7.812538000000000     20.678325999999998      5.151429000000000
H       7.578992000000000     20.607040000000001      2.699843000000000
C       8.281000000000001     21.094356000000001      0.134767000000000
C       9.508315000000000     24.078112999999998     14.423595000000001
C       8.814076000000000     23.684888999999998     13.257203000000001
C       9.284302000000000     23.995000999999998     11.981199000000000
C       8.587991000000001     23.599032000000001     10.795165000000001
C       9.070951000000001     23.923608999999999      9.552776000000000
C      10.283049999999999     24.666405999999998      9.415781000000001
C      10.985620000000001     25.063291000000000     10.525755999999999
C      10.521983000000001     24.746445999999999     11.842273000000000
C      11.218076999999999     25.136422000000000     12.986407000000000
C      10.753652000000001     24.825368000000001     14.284357999999999
H       7.344692000000000     20.534979000000000      0.239176000000000
H       7.879625000000000     23.122413000000002     13.363386999999999
H       7.658255000000000     23.030018999999999     10.900024999999999
H       8.522999000000000     23.610341999999999      8.658144999999999
H      10.653268000000001     24.917777000000001      8.416119000000000
H      11.917235000000000     25.630046000000000     10.424975999999999
H      12.150800000000000     25.701305999999999     12.876562000000000
