&CONTROL
  title = '# pentacene - C22 H14'
  pseudo_dir = './'
    calculation = 'md'
    nstep = 2600,
    dt = 20,
    nonadiabatic = .true.
/
 
&SYSTEM
  nat= 36
  ntyp= 2
  ibrav= 0
  ecutwfc = 40,
  ecutrho = 400
  nbnd = 65
  occupations =  'smearing',
  smearing    =  'gaussian',
  degauss     =  0.03,
  vdw_corr = 'dft-d2',
    fde_kin_funct = 'revAPBEK'
    fde_split_mix = .true.
    fde_cell_split(1) = 0.33
    fde_cell_split(2) = 0.33
    fde_cell_split(3) = 1
    fde_nba_beg = 46 !homo=51
    fde_nba_end = 57 !lumo=52
     nosym = .true.
/
 
&ELECTRONS
    diagonalization='david'
    mixing_mode = 'plain'
    mixing_beta = 0.7
    conv_thr =  1.0d-9
    electron_maxstep =500
    use_gaussians = .true.

/

/
 
&IONS
  ion_dynamics = 'verlet'
  ion_temperature = 'rescaling'
  tempw = 300
/
 
&CELL
/
 
ATOMIC_SPECIES
 H   1.00    h_pbe_v1.4.uspp.F.UPF
 C   12.00   c_pbe_v1.2.uspp.F.UPF
 
K_POINTS gamma

CELL_PARAMETERS angstrom
   18.68522100    0.00000000    0.00000000
    0.17227471   26.17960718    0.00000000
    0.75744653    2.67565873   15.57640494
ATOMIC_POSITIONS angstrom
C      17.619786000000001     16.487437000000000     15.441637999999999
C      16.392451999999999     13.503677000000000      1.152794000000000
C      17.086690999999998     13.896903999999999      2.319202000000000
C      16.616485000000001     13.586817999999999      3.595206000000000
C      17.312777000000001     13.982787999999999      4.781240000000000
C      16.829834999999999     13.658184000000000      6.023629000000000
C      15.617718000000000     12.915387000000001      6.160624000000000
C      14.915148000000000     12.518502000000000      5.050649000000000
C      15.378803000000000     12.835369999999999      3.734116000000000
C      14.682691000000000     12.445371000000000      2.589998000000000
C      15.147116000000000     12.756425000000000      1.292047000000000
H      18.556075000000000     17.046811999999999     15.337213999999999
H      18.021142999999999     14.459406000000000      2.213018000000000
H      18.242532000000001     14.551774000000000      4.676379000000000
H      17.377787999999999     13.971451000000000      6.918260000000000
H      15.247519000000000     12.664016000000000      7.160286000000000
H      13.983533000000000     11.951772999999999      5.151429000000000
H      13.749986000000000     11.880487000000000      2.699843000000000
C      14.451995000000000     12.367803000000000      0.134767000000000
C      15.679309999999999     15.351559999999999     14.423595000000001
C      14.985071000000000     14.958335999999999     13.257203000000001
C      15.455296000000001     15.268447999999999     11.981199000000000
C      14.758986000000000     14.872477999999999     10.795165000000001
C      15.241946000000000     15.197056000000000      9.552776000000000
C      16.454044000000000     15.939852999999999      9.415781000000001
C      17.156614000000001     16.336736999999999     10.525755999999999
C      16.692976999999999     16.019893000000000     11.842273000000000
C      17.389071000000001     16.409869000000000     12.986407000000000
C      16.924645999999999     16.098814999999998     14.284357999999999
H      13.515686000000001     11.808425000000000      0.239176000000000
H      14.050620000000000     14.395860000000001     13.363386999999999
H      13.829249000000001     14.303466000000000     10.900024999999999
H      14.693993000000001     14.883789000000000      8.658144999999999
H      16.824262000000001     16.191223000000001      8.416119000000000
H      18.088229999999999     16.903493000000001     10.424975999999999
H      18.321795000000002     16.974753000000000     12.876562000000000
