&CONTROL
  title = '# pentacene - C22 H14'
  pseudo_dir = './'
    calculation = 'md'
    nstep = 2600,
    dt = 20,
    nonadiabatic = .true.
/
 
&SYSTEM
  nat= 36
  ntyp= 2
  ibrav= 0
  ecutwfc = 40,
  ecutrho = 400
  nbnd = 65
  occupations =  'smearing',
  smearing    =  'gaussian',
  degauss     =  0.03,
  vdw_corr = 'dft-d2',
    fde_kin_funct = 'revAPBEK'
    fde_split_mix = .true.
    fde_cell_split(1) = 0.33
    fde_cell_split(2) = 0.33
    fde_cell_split(3) = 1
    fde_nba_beg = 46 !homo=51
    fde_nba_end = 57 !lumo=52
     nosym = .true.
/
 
&ELECTRONS
    diagonalization='david'
    mixing_mode = 'plain'
    mixing_beta = 0.7
    conv_thr =  1.0d-9
    electron_maxstep =500
    use_gaussians = .true.

/

/
 
&IONS
  ion_dynamics = 'verlet'
  ion_temperature = 'rescaling'
  tempw = 300
/
 
&CELL
/
 
ATOMIC_SPECIES
 H   1.00    h_pbe_v1.4.uspp.F.UPF
 C   12.00   c_pbe_v1.2.uspp.F.UPF
 
K_POINTS gamma

CELL_PARAMETERS angstrom
   18.68522100    0.00000000    0.00000000
    0.17227471   26.17960718    0.00000000
    0.75744653    2.67565873   15.57640494
ATOMIC_POSITIONS angstrom
C       5.162966000000000     16.487437000000000     15.441637999999999
C       3.935632000000000     13.503677000000000      1.152794000000000
C       4.629871000000000     13.896903999999999      2.319202000000000
C       4.159665000000000     13.586817999999999      3.595206000000000
C       4.855957000000000     13.982787999999999      4.781240000000000
C       4.373015000000000     13.658184000000000      6.023629000000000
C       3.160898000000000     12.915387000000001      6.160624000000000
C       2.458328000000000     12.518502000000000      5.050649000000000
C       2.921983000000000     12.835369999999999      3.734116000000000
C       2.225871000000000     12.445371000000000      2.589998000000000
C       2.690296000000000     12.756425000000000      1.292047000000000
H       6.099255000000000     17.046811999999999     15.337213999999999
H       5.564323000000000     14.459406000000000      2.213018000000000
H       5.785711000000000     14.551774000000000      4.676379000000000
H       4.920968000000000     13.971451000000000      6.918260000000000
H       2.790699000000000     12.664016000000000      7.160286000000000
H       1.526713000000000     11.951772999999999      5.151429000000000
H       1.293166000000000     11.880487000000000      2.699843000000000
C       1.995175000000000     12.367803000000000      0.134767000000000
C       3.222489000000000     15.351559999999999     14.423595000000001
C       2.528251000000000     14.958335999999999     13.257203000000001
C       2.998476000000000     15.268447999999999     11.981199000000000
C       2.302165000000000     14.872477999999999     10.795165000000001
C       2.785126000000000     15.197056000000000      9.552776000000000
C       3.997224000000000     15.939852999999999      9.415781000000001
C       4.699794000000000     16.336736999999999     10.525755999999999
C       4.236157000000000     16.019893000000000     11.842273000000000
C       4.932251000000000     16.409869000000000     12.986407000000000
C       4.467826000000000     16.098814999999998     14.284357999999999
H       1.058866000000000     11.808425000000000      0.239176000000000
H       1.593799000000000     14.395860000000001     13.363386999999999
H       1.372429000000000     14.303466000000000     10.900024999999999
H       2.237173000000000     14.883789000000000      8.658144999999999
H       4.367442000000000     16.191223000000001      8.416119000000000
H       5.631409000000000     16.903493000000001     10.424975999999999
H       5.864974000000000     16.974753000000000     12.876562000000000
