&CONTROL
  title = '# pentacene - C22 H14'
  pseudo_dir = './'
    calculation = 'md'
    nstep = 2600,
    dt = 20,
    nonadiabatic = .true.
/
 
&SYSTEM
  nat= 36
  ntyp= 2
  ibrav= 0
  ecutwfc = 40,
  ecutrho = 400
  nbnd = 65
  occupations =  'smearing',
  smearing    =  'gaussian',
  degauss     =  0.03,
  vdw_corr = 'dft-d2',
    fde_kin_funct = 'revAPBEK'
    fde_split_mix = .true.
    fde_cell_split(1) = 0.33
    fde_cell_split(2) = 0.33
    fde_cell_split(3) = 1
    fde_nba_beg = 46 !homo=51
    fde_nba_end = 57 !lumo=52
     nosym = .true.
/
 
&ELECTRONS
    diagonalization='david'
    mixing_mode = 'plain'
    mixing_beta = 0.7
    conv_thr =  1.0d-9
    electron_maxstep =500
    use_gaussians = .true.

/

/
 
&IONS
  ion_dynamics = 'verlet'
  ion_temperature = 'rescaling'
  tempw = 300
/
 
&CELL
/
 
ATOMIC_SPECIES
 H   1.00    h_pbe_v1.4.uspp.F.UPF
 C   12.00   c_pbe_v1.2.uspp.F.UPF
 
K_POINTS gamma

CELL_PARAMETERS angstrom
   18.68522100    0.00000000    0.00000000
    0.17227471   26.17960718    0.00000000
    0.75744653    2.67565873   15.57640494
ATOMIC_POSITIONS angstrom
C       2.019867000000000     10.671792000000000     15.496342000000000
C       0.784815000000000      8.385469000000001      1.181657000000000
C       1.469587000000000      8.065597000000000      2.375386000000000
C       0.982982000000000      8.445226000000000      3.626016000000000
C       1.656933000000000      8.108744000000000      4.842844000000000
C       1.140978000000000      8.477523000000000      6.059268000000000
H       2.955414000000000     10.104721000000000     15.432822000000000
H       2.405223000000000      7.498035000000000      2.311445000000000
H       2.593187000000000      7.543023000000000      4.782611000000000
H       1.665155000000000      8.202211000000000      6.980208000000000
C       1.623088000000000     10.554694000000000     10.580226000000000
C       1.811338000000000     10.601979000000000     13.041750000000000
C       1.333590000000000     10.988306000000000     14.313081000000000
H       2.553379000000000      9.979124000000001     10.524837000000000
H       2.748687000000000     10.037599999999999     12.974086000000000
C       0.950166000000000     10.910081999999999      9.439473000000000
C       1.130907000000000     10.928947000000001     11.869968000000000
H       1.347654000000000     10.623169000000001      8.460667000000001
C      18.607370000000000      9.218631000000000      6.136932000000000
C      18.426628999999998      9.199792000000000      3.706437000000000
H      18.209862999999999      9.505570000000001      7.115738000000000
C      17.934446999999999      9.574019000000000      4.996179000000000
C      17.746198000000000      9.526733999999999      2.534655000000000
C      18.223927000000000      9.140407000000000      1.263324000000000
H      17.004138000000001     10.149589000000001      5.051568000000000
H      16.808830000000000     10.091113000000000      2.602319000000000
C      17.537649999999999      9.456920000000000      0.080063000000000
C      18.772701999999999     11.743270000000001     14.394748000000000
C      18.087930000000000     12.063116000000001     13.201019000000001
C      18.574535000000001     11.683487000000000     11.950388999999999
C      17.900583999999998     12.019969000000000     10.733560000000001
C      18.416539000000000     11.651190000000000      9.517137000000000
H      16.602103000000000     10.023991000000001      0.143583000000000
H      17.152312999999999     12.630704000000000     13.264960000000000
H      16.964348999999999     12.585690000000000     10.793794000000000
H      17.892381000000000     11.926527999999999      8.596197000000000
