&CONTROL
  title = '# pentacene - C22 H14'
  pseudo_dir = './'
    calculation = 'md'
    nstep = 2600,
    dt = 20,
    nonadiabatic = .true.
/
 
&SYSTEM
  nat= 36
  ntyp= 2
  ibrav= 0
  ecutwfc = 40,
  ecutrho = 400
  nbnd = 65
  occupations =  'smearing',
  smearing    =  'gaussian',
  degauss     =  0.03,
  vdw_corr = 'dft-d2',
    fde_kin_funct = 'revAPBEK'
    fde_split_mix = .true.
    fde_cell_split(1) = 0.33
    fde_cell_split(2) = 0.33
    fde_cell_split(3) = 1
    fde_nba_beg = 46 !homo=51
    fde_nba_end = 57 !lumo=52
     nosym = .true.
/
 
&ELECTRONS
    diagonalization='david'
    mixing_mode = 'plain'
    mixing_beta = 0.7
    conv_thr =  1.0d-9
    electron_maxstep =500
    use_gaussians = .true.

/

/
 
&IONS
  ion_dynamics = 'verlet'
  ion_temperature = 'rescaling'
  tempw = 300
/
 
&CELL
/
 
ATOMIC_SPECIES
 H   1.00    h_pbe_v1.4.uspp.F.UPF
 C   12.00   c_pbe_v1.2.uspp.F.UPF
 
K_POINTS gamma

CELL_PARAMETERS angstrom
   18.68522100    0.00000000    0.00000000
    0.17227471   26.17960718    0.00000000
    0.75744653    2.67565873   15.57640494
ATOMIC_POSITIONS angstrom
C       0.892741000000000      2.183555000000000      9.439473000000000
C       1.073482000000000      2.202420000000000     11.869968000000000
H       1.290229000000000      1.896642000000000      8.460667000000001
C       2.134717000000000     28.124872000000000     15.496342000000000
C       0.899665000000000     25.838550000000001      1.181657000000000
C       1.584437000000000     25.518677000000000      2.375386000000000
C       1.097832000000000     25.898306000000002      3.626016000000000
C       1.771783000000000     25.561824000000001      4.842844000000000
C       1.255828000000000     25.930603000000001      6.059268000000000
H       3.070264000000000     27.557801999999999     15.432822000000000
H       2.520073000000000     24.951115000000001      2.311445000000000
H       2.708037000000000     24.996103000000002      4.782611000000000
H       1.780005000000000     25.655290999999998      6.980208000000000
C       1.565664000000000      1.828167000000000     10.580226000000000
C       1.926188000000000     28.055059000000000     13.041750000000000
C       1.448440000000000     28.441386000000001     14.313081000000000
H       2.668229000000000     27.432203999999999     10.524837000000000
H       2.863537000000000     27.490680000000001     12.974086000000000
C      18.049296999999999     27.027099000000000      4.996179000000000
C      17.688773000000001      0.800207000000000      2.534655000000000
C      18.166502000000001      0.413880000000000      1.263324000000000
H      16.946712999999999      1.423062000000000      5.051568000000000
H      16.751405999999999      1.364586000000000      2.602319000000000
C      17.480225000000001      0.730393000000000      0.080063000000000
C      18.715278000000001      3.016743000000000     14.394748000000000
C      18.030505000000002      3.336589000000000     13.201019000000001
C      18.517109999999999      2.956960000000000     11.950388999999999
C      17.843160000000001      3.293442000000000     10.733560000000001
C      18.359114999999999      2.924663000000000      9.517137000000000
H      16.544678000000001      1.297464000000000      0.143583000000000
H      17.094888000000001      3.904177000000000     13.264960000000000
H      16.906924000000000      3.859163000000000     10.793794000000000
H      17.834955999999998      3.200001000000000      8.596197000000000
C      18.722220000000000     26.671710999999998      6.136932000000000
C      18.541478999999999     26.652871999999999      3.706437000000000
H      18.324712999999999     26.958649999999999      7.115738000000000
