&CONTROL
  title = '# pentacene - C22 H14'
  pseudo_dir = './'
    calculation = 'md'
    nstep = 2600,
    dt = 20,
    nonadiabatic = .true.
/
 
&SYSTEM
  nat= 36
  ntyp= 2
  ibrav= 0
  ecutwfc = 40,
  ecutrho = 400
  nbnd = 65
  occupations =  'smearing',
  smearing    =  'gaussian',
  degauss     =  0.03,
  vdw_corr = 'dft-d2',
    fde_kin_funct = 'revAPBEK'
    fde_split_mix = .true.
    fde_cell_split(1) = 0.33
    fde_cell_split(2) = 0.33
    fde_cell_split(3) = 1
    fde_nba_beg = 46 !homo=51
    fde_nba_end = 57 !lumo=52
     nosym = .true.
/
 
&ELECTRONS
    diagonalization='david'
    mixing_mode = 'plain'
    mixing_beta = 0.7
    conv_thr =  1.0d-9
    electron_maxstep =500
    use_gaussians = .true.

/

/
 
&IONS
  ion_dynamics = 'verlet'
  ion_temperature = 'rescaling'
  tempw = 300
/
 
&CELL
/
 
ATOMIC_SPECIES
 H   1.00    h_pbe_v1.4.uspp.F.UPF
 C   12.00   c_pbe_v1.2.uspp.F.UPF
 
K_POINTS gamma

CELL_PARAMETERS angstrom
   18.68522100    0.00000000    0.00000000
    0.17227471   26.17960718    0.00000000
    0.75744653    2.67565873   15.57640494
ATOMIC_POSITIONS angstrom
C       5.592477000000000     27.027099000000000      4.996179000000000
C       5.231953000000000      0.800207000000000      2.534655000000000
C       5.709682000000000      0.413880000000000      1.263324000000000
H       4.489893000000000      1.423062000000000      5.051568000000000
H       4.294585000000000      1.364586000000000      2.602319000000000
C       5.023405000000000      0.730393000000000      0.080063000000000
C       6.258457000000000      3.016743000000000     14.394748000000000
C       5.573685000000000      3.336589000000000     13.201019000000001
C       6.060290000000000      2.956960000000000     11.950388999999999
C       5.386339000000000      3.293442000000000     10.733560000000001
C       5.902294000000000      2.924663000000000      9.517137000000000
H       4.087858000000000      1.297464000000000      0.143583000000000
H       4.638068000000000      3.904177000000000     13.264960000000000
H       4.450104000000000      3.859163000000000     10.793794000000000
H       5.378136000000000      3.200001000000000      8.596197000000000
C       6.265399000000000     26.671710999999998      6.136932000000000
C       6.084659000000000     26.652871999999999      3.706437000000000
H       5.867893000000000     26.958649999999999      7.115738000000000
C       7.121142000000000      2.183555000000000      9.439473000000000
C       7.301883000000000      2.202420000000000     11.869968000000000
H       7.518630000000000      1.896642000000000      8.460667000000001
C       8.363118000000000     28.124872000000000     15.496342000000000
C       7.128066000000000     25.838550000000001      1.181657000000000
C       7.812838000000000     25.518677000000000      2.375386000000000
C       7.326233000000000     25.898306000000002      3.626016000000000
C       8.000183000000000     25.561824000000001      4.842844000000000
C       7.484228000000000     25.930603000000001      6.059268000000000
H       9.298665000000000     27.557801999999999     15.432822000000000
H       8.748473000000001     24.951115000000001      2.311445000000000
H       8.936437000000000     24.996103000000002      4.782611000000000
H       8.008406000000001     25.655290999999998      6.980208000000000
C       7.794064000000000      1.828167000000000     10.580226000000000
C       8.154589000000000     28.055059000000000     13.041750000000000
C       7.676841000000000     28.441386000000001     14.313081000000000
H       8.896630000000000     27.432203999999999     10.524837000000000
H       9.091937000000000     27.490680000000001     12.974086000000000
