i&CONTROL
  title = '# pentacene - C22 H14'
  pseudo_dir = './'
  calculation = 'scf'
  nonadiabatic = .true.
/
 
&SYSTEM
  nat= 36
  ntyp= 2
  ibrav= 0
  ecutwfc = 40,
  ecutrho = 400
  nbnd = 65
  degauss = 0.02
    fde_kin_funct = 'revAPBEK'
    fde_split_mix = .true.
    fde_cell_split(1) = 0.5
    fde_cell_split(2) = 0.5
    fde_cell_split(3) = 1
    fde_nba_beg = 46 !homo=51
    fde_nba_end = 57 !lumo=52
     nosym = .true.
/
 
&ELECTRONS
    diagonalization='david'
    mixing_mode = 'plain'
    mixing_beta = 0.7
    conv_thr =  1.0d-9
    electron_maxstep =500
    use_gaussians = .true.

/

/
 
&IONS
  ion_dynamics = 'bfgs'
/
 
&CELL
/
 
ATOMIC_SPECIES
 H   1.00    h_pbe_v1.4.uspp.F.UPF
 C   12.00   c_pbe_v1.2.uspp.F.UPF
 
K_POINTS gamma

CELL_PARAMETERS angstrom
   12.45681300    0.00000000    0.00000000
    0.11484980   17.45307112    0.00000000
    0.75744653    2.67565873   15.57640494

ATOMIC_POSITIONS angstrom
C      11.333935000000000      7.760918000000000     15.441637999999999
C      10.106612999999999      4.777150000000000      1.152794000000000
C      10.800859000000001      5.170385000000000      2.319202000000000
C      10.330633000000001      4.860291000000000      3.595206000000000
C      11.026937999999999      5.256252000000000      4.781240000000000
C      10.543984000000000      4.931657000000000      6.023629000000000
C       9.331886000000001      4.188860000000000      6.160624000000000
C       8.629308999999999      3.791967000000000      5.050649000000000
C       9.092957999999999      4.108835000000000      3.734116000000000
C       8.396853000000000      3.718852000000000      2.589998000000000
C       8.861283000000000      4.029907000000000      1.292047000000000
H      12.270243000000001      8.320292999999999     15.337213999999999
H      11.735310000000000      5.732879000000000      2.213018000000000
H      11.956685999999999      5.825256000000000      4.676379000000000
H      11.091943000000001      5.244924000000000      6.918260000000000
H       8.961679999999999      3.937498000000000      7.160286000000000
H       7.697700000000000      3.225229000000000      5.151429000000000
H       7.464142000000000      3.153968000000000      2.699843000000000
C       8.166156000000001      3.641276000000000      0.134767000000000
C       9.393477000000001      6.625041000000000     14.423595000000001
C       8.699232000000000      6.231809000000000     13.257203000000001
C       9.169458000000001      6.541903000000000     11.981199000000000
C       8.473153000000000      6.145943000000000     10.795165000000001
C       8.956094999999999      6.470538000000000      9.552776000000000
C      10.168205000000000      7.213335000000000      9.415781000000001
C      10.870780999999999      7.610210000000000     10.525755999999999
C      10.407132000000001      7.293357000000000     11.842273000000000
C      11.103237999999999      7.683342000000000     12.986407000000000
C      10.638807999999999      7.372288000000000     14.284357999999999
H       7.229848000000000      3.081916000000000      0.239176000000000
H       7.764794000000000      5.669333000000000     13.363386999999999
H       7.543404000000000      5.576939000000000     10.900024999999999
H       8.408148000000001      6.157253000000000      8.658144999999999
H      10.538423000000000      7.464696000000000      8.416119000000000
H      11.802403000000000      8.176966000000000     10.424975999999999
H      12.035949000000000      8.248226000000001     12.876562000000000
