i&CONTROL
  title = '# pentacene - C22 H14'
  pseudo_dir = './'
  calculation = 'scf'
  nonadiabatic = .true.
/
 
&SYSTEM
  nat= 36
  ntyp= 2
  ibrav= 0
  ecutwfc = 40,
  ecutrho = 400
  nbnd = 65
  degauss = 0.02
    fde_kin_funct = 'revAPBEK'
    fde_split_mix = .true.
    fde_cell_split(1) = 0.5
    fde_cell_split(2) = 0.5
    fde_cell_split(3) = 1
    fde_nba_beg = 46 !homo=51
    fde_nba_end = 57 !lumo=52
     nosym = .true.
/
 
&ELECTRONS
    diagonalization='david'
    mixing_mode = 'plain'
    mixing_beta = 0.7
    conv_thr =  1.0d-9
    electron_maxstep =500
    use_gaussians = .true.

/

/
 
&IONS
  ion_dynamics = 'bfgs'
/
 
&CELL
/
 
ATOMIC_SPECIES
 H   1.00    h_pbe_v1.4.uspp.F.UPF
 C   12.00   c_pbe_v1.2.uspp.F.UPF
 
K_POINTS gamma

CELL_PARAMETERS angstrom
   12.45681300    0.00000000    0.00000000
    0.11484980   17.45307112    0.00000000
    0.75744653    2.67565873   15.57640494

ATOMIC_POSITIONS angstrom
C      11.391360000000001     16.487454000000000     15.441637999999999
C      10.164038000000000     13.503686000000000      1.152794000000000
C      10.858283999999999     13.896921000000001      2.319202000000000
C      10.388057999999999     13.586826000000000      3.595206000000000
C      11.084363000000000     13.982787000000000      4.781240000000000
C      10.601409000000000     13.658192000000000      6.023629000000000
C       9.389310000000000     12.915395000000000      6.160624000000000
C       8.686734000000000     12.518502000000000      5.050649000000000
C       9.150383000000000     12.835369999999999      3.734116000000000
C       8.454278000000000     12.445387999999999      2.589998000000000
C       8.918708000000001     12.756442000000000      1.292047000000000
H      12.327667999999999     17.046828999999999     15.337213999999999
H      11.792735000000000     14.459415000000000      2.213018000000000
H      12.014111000000000     14.551791000000000      4.676379000000000
H      11.149368000000001     13.971458999999999      6.918260000000000
H       9.019105000000000     12.664033999999999      7.160286000000000
H       7.755125000000000     11.951764000000001      5.151429000000000
H       7.521567000000000     11.880504000000000      2.699843000000000
C       8.223580999999999     12.367812000000001      0.134767000000000
C       9.450901999999999     15.351577000000001     14.423595000000001
C       8.756657000000001     14.958344000000000     13.257203000000001
C       9.226882000000000     15.268439000000001     11.981199000000000
C       8.530578000000000     14.872477999999999     10.795165000000001
C       9.013520000000000     15.197073000000000      9.552776000000000
C      10.225630000000001     15.939870000000001      9.415781000000001
C      10.928205999999999     16.336746000000002     10.525755999999999
C      10.464556999999999     16.019893000000000     11.842273000000000
C      11.160663000000000     16.409877999999999     12.986407000000000
C      10.696232000000000     16.098822999999999     14.284357999999999
H       7.287272000000000     11.808451000000000      0.239176000000000
H       7.822218000000000     14.395868000000000     13.363386999999999
H       7.600829000000000     14.303474000000000     10.900024999999999
H       8.465572999999999     14.883789000000000      8.658144999999999
H      10.595848000000000     16.191231999999999      8.416119000000000
H      11.859828000000000     16.903500999999999     10.424975999999999
H      12.093374000000001     16.974761999999998     12.876562000000000
