i&CONTROL
  title = '# pentacene - C22 H14'
  pseudo_dir = './'
  calculation = 'scf'
  nonadiabatic = .true.
/
 
&SYSTEM
  nat= 36
  ntyp= 2
  ibrav= 0
  ecutwfc = 40,
  ecutrho = 400
  nbnd = 65
  degauss = 0.02
    fde_kin_funct = 'revAPBEK'
    fde_split_mix = .true.
    fde_cell_split(1) = 0.5
    fde_cell_split(2) = 0.5
    fde_cell_split(3) = 1
    fde_nba_beg = 46 !homo=51
    fde_nba_end = 57 !lumo=52
     nosym = .true.
/
 
&ELECTRONS
    diagonalization='david'
    mixing_mode = 'plain'
    mixing_beta = 0.7
    conv_thr =  1.0d-9
    electron_maxstep =500
    use_gaussians = .true.

/

/
 
&IONS
  ion_dynamics = 'bfgs'
/
 
&CELL
/
 
ATOMIC_SPECIES
 H   1.00    h_pbe_v1.4.uspp.F.UPF
 C   12.00   c_pbe_v1.2.uspp.F.UPF
 
K_POINTS gamma

CELL_PARAMETERS angstrom
   12.45681300    0.00000000    0.00000000
    0.11484980   17.45307112    0.00000000
    0.75744653    2.67565873   15.57640494

ATOMIC_POSITIONS angstrom
C       5.105528000000000      7.760918000000000     15.441637999999999
C       3.878207000000000      4.777150000000000      1.152794000000000
C       4.572452000000000      5.170385000000000      2.319202000000000
C       4.102227000000000      4.860291000000000      3.595206000000000
C       4.798531000000000      5.256252000000000      4.781240000000000
C       4.315577000000000      4.931657000000000      6.023629000000000
C       3.103479000000000      4.188860000000000      6.160624000000000
C       2.400903000000000      3.791967000000000      5.050649000000000
C       2.864552000000000      4.108835000000000      3.734116000000000
C       2.168446000000000      3.718852000000000      2.589998000000000
C       2.632877000000000      4.029907000000000      1.292047000000000
H       6.041836000000000      8.320292999999999     15.337213999999999
H       5.506903000000000      5.732879000000000      2.213018000000000
H       5.728280000000000      5.825256000000000      4.676379000000000
H       4.863536000000000      5.244924000000000      6.918260000000000
H       2.733274000000000      3.937498000000000      7.160286000000000
H       1.469294000000000      3.225229000000000      5.151429000000000
H       1.235735000000000      3.153968000000000      2.699843000000000
C       1.937750000000000      3.641276000000000      0.134767000000000
C       3.165071000000000      6.625041000000000     14.423595000000001
C       2.470826000000000      6.231809000000000     13.257203000000001
C       2.941051000000000      6.541903000000000     11.981199000000000
C       2.244747000000000      6.145943000000000     10.795165000000001
C       2.727688000000000      6.470538000000000      9.552776000000000
C       3.939799000000000      7.213335000000000      9.415781000000001
C       4.642375000000000      7.610210000000000     10.525755999999999
C       4.178726000000000      7.293357000000000     11.842273000000000
C       4.874832000000000      7.683342000000000     12.986407000000000
C       4.410401000000000      7.372288000000000     14.284357999999999
H       1.001441000000000      3.081916000000000      0.239176000000000
H       1.536387000000000      5.669333000000000     13.363386999999999
H       1.314998000000000      5.576939000000000     10.900024999999999
H       2.179742000000000      6.157253000000000      8.658144999999999
H       4.310017000000000      7.464696000000000      8.416119000000000
H       5.573997000000000      8.176966000000000     10.424975999999999
H       5.807543000000000      8.248226000000001     12.876562000000000
