&CONTROL
  title = '# pentacene - C22 H14'
  pseudo_dir = './'
  calculation = 'md'
  nonadiabatic = .true.
  nstep = 2200
  dt = 20

/
 
&SYSTEM
  nat= 36
  ntyp= 2
  ibrav= 0
  ecutwfc = 40,
  ecutrho = 400
  occupations =  'smearing',
  smearing    =  'gaussian',
  degauss     =  0.03,
  vdw_corr = 'dft-d2',

    fde_kin_funct = 'revAPBEK'
    fde_split_mix = .true.
    fde_cell_split(1) = 0.8
    fde_cell_split(2) = 1
    fde_cell_split(3) = 1
    fde_nba_beg = 46 !homo=51
    fde_nba_end = 57 !lumo=52
     nosym = .true.
/
 
&ELECTRONS
    diagonalization='david'
    mixing_mode = 'plain'
    mixing_beta = 0.7
    conv_thr =  1.0d-9
    electron_maxstep =500
    use_gaussians = .true.

/

/
 
&IONS
  ion_dynamics = 'verlet'
  ion_temperature = 'rescaling'
  tempw = 300

/
 
&CELL
/
 
ATOMIC_SPECIES
 H   1.00    h_pbe_v1.4.uspp.F.UPF
 C   12.00   c_pbe_v1.2.uspp.F.UPF
 
K_POINTS gamma

CELL_PARAMETERS angstrom
   12.45681200    0.00000000    0.00000000
    0.05742490    8.72653506    0.00000000
    0.75744648    2.67565856   15.57640395
ATOMIC_POSITIONS angstrom
C       6.150536000000000      9.218629999999999      6.136932000000000
C       5.477620000000000      9.574018000000001      4.996178000000000
C       5.969796000000000      9.199783000000000      3.706436000000000
C       5.231952000000000      0.800215000000000      2.534655000000000
C       5.709688000000000      0.413871000000000      1.263324000000000
H       5.753048000000000      9.505559999999999      7.115737000000000
H       4.489886000000000      1.423071000000000      5.051568000000000
H       4.294591000000000      1.364595000000000      2.602319000000000
C       5.023410000000000      0.730402000000000      0.080063000000000
C       6.258456000000000      3.016734000000000     14.394747000000001
C       5.573684000000000      3.336589000000000     13.201017999999999
C       6.060283000000000      2.956960000000000     11.950388000000000
C       5.386345000000000      3.293450000000000     10.733560000000001
C       5.902306000000000      2.924662000000000      9.517136000000001
H       4.087863000000000      1.297464000000000      0.143583000000000
H       4.638061000000000      3.904168000000000     13.264958999999999
H       4.450097000000000      3.859171000000000     10.793794000000000
H       5.378122000000000      3.199992000000000      8.596197000000000
C       8.248272999999999     10.671791000000001     15.496340999999999
C       7.013227000000000      8.385460000000000      1.181657000000000
C       7.697999000000000      8.065605000000000      2.375386000000000
C       7.211388000000000      8.445225000000001      3.626015000000000
C       7.885351000000000      8.108743000000000      4.842844000000000
C       7.369377000000000      8.477531000000001      6.059268000000000
H       9.183832000000001     10.104729000000001     15.432821000000001
H       8.633622000000001      7.498025000000000      2.311445000000000
H       8.821586000000000      7.543022000000000      4.782610000000000
H       7.893549000000000      8.202201000000001      6.980207000000000
C       7.121135000000000      2.183563000000000      9.439472000000000
C       7.794063000000000      1.828167000000000     10.580226000000000
C       7.301875000000000      2.202411000000000     11.869967000000001
C       8.039732000000001     10.601978000000001     13.041748999999999
C       7.561996000000000     10.988314000000001     14.313079999999999
H       7.518635000000000      1.896633000000000      8.460666000000000
H       8.781796999999999      9.979123000000000     10.524836000000001
H       8.977080000000001     10.037599000000000     12.974085000000001

