&CONTROL
  title = '# pentacene - C22 H14'
  pseudo_dir = './'
  calculation = 'md'
  nonadiabatic = .true.
  nstep = 2200
  dt = 20

/
 
&SYSTEM
  nat= 36
  ntyp= 2
  ibrav= 0
  ecutwfc = 40,
  ecutrho = 400
  occupations =  'smearing',
  smearing    =  'gaussian',
  degauss     =  0.03,
  vdw_corr = 'dft-d2',

    fde_kin_funct = 'revAPBEK'
    fde_split_mix = .true.
    fde_cell_split(1) = 0.8
    fde_cell_split(2) = 1
    fde_cell_split(3) = 1
    fde_nba_beg = 46 !homo=51
    fde_nba_end = 57 !lumo=52
     nosym = .true.
/
 
&ELECTRONS
    diagonalization='david'
    mixing_mode = 'plain'
    mixing_beta = 0.7
    conv_thr =  1.0d-9
    electron_maxstep =500
    use_gaussians = .true.

/

/
 
&IONS
  ion_dynamics = 'verlet'
  ion_temperature = 'rescaling'
  tempw = 300

/
 
&CELL
/
 
ATOMIC_SPECIES
 H   1.00    h_pbe_v1.4.uspp.F.UPF
 C   12.00   c_pbe_v1.2.uspp.F.UPF
 
K_POINTS gamma

CELL_PARAMETERS angstrom
   12.45681200    0.00000000    0.00000000
    0.05742490    8.72653506    0.00000000
    0.75744648    2.67565856   15.57640395
ATOMIC_POSITIONS angstrom
C       5.105528000000000      7.760918000000000     15.441637000000000
C       3.878206000000000      4.777150000000000      1.152794000000000
C       4.572452000000000      5.170385000000000      2.319202000000000
C       4.102227000000000      4.860282000000000      3.595205000000000
C       4.798531000000000      5.256251000000000      4.781239000000000
C       4.315577000000000      4.931656000000000      6.023629000000000
C       3.103479000000000      4.188859000000000      6.160624000000000
C       2.400903000000000      3.791975000000000      5.050649000000000
C       2.864551000000000      4.108834000000000      3.734116000000000
C       2.168446000000000      3.718843000000000      2.589998000000000
C       2.632877000000000      4.029906000000000      1.292047000000000
H       6.041836000000000      8.320283999999999     15.337213000000000
H       5.506903000000000      5.732870000000000      2.213018000000000
H       5.728280000000000      5.825255000000000      4.676379000000000
H       4.863536000000000      5.244932000000000      6.918260000000000
H       2.733274000000000      3.937498000000000      7.160286000000000
H       1.469294000000000      3.225237000000000      5.151428000000000
H       1.235735000000000      3.153959000000000      2.699843000000000
C       1.937750000000000      3.641276000000000      0.134767000000000
C       3.165070000000000      6.625041000000000     14.423594000000000
C       2.470825000000000      6.231808000000000     13.257201999999999
C       2.941051000000000      6.541912000000000     11.981199000000000
C       2.244746000000000      6.145942000000000     10.795164000000000
C       2.727688000000000      6.470537000000000      9.552775000000000
C       3.939799000000000      7.213334000000000      9.415780000000000
C       4.642375000000000      7.610219000000000     10.525755000000000
C       4.178725000000000      7.293357000000000     11.842273000000000
C       4.874831000000000      7.683350000000000     12.986406000000001
C       4.410401000000000      7.372287000000000     14.284357000000000
H       1.001441000000000      3.081907000000000      0.239176000000000
H       1.536387000000000      5.669324000000000     13.363386000000000
H       1.314998000000000      5.576938000000000     10.900024999999999
H       2.179742000000000      6.157261000000000      8.658144000000000
H       4.310016000000000      7.464696000000000      8.416118000000001
H       5.573996000000000      8.176957000000000     10.424975999999999
H       5.807542000000000      8.248234000000000     12.876561000000001

