i&CONTROL
  title = '# pentacene - C22 H14'
  pseudo_dir = './'
  calculation = 'scf'
  nonadiabatic = .true.
/
 
&SYSTEM
  nat= 36
  ntyp= 2
  ibrav= 0
  ecutwfc = 40,
  ecutrho = 400
  nbnd = 65
    fde_kin_funct = 'revAPBEK'
    fde_split_mix = .true.
    fde_cell_split(1) = 0.33
    fde_cell_split(2) = 0.33
    fde_cell_split(3) = 1
    fde_nba_beg = 46 !homo=51
    fde_nba_end = 57 !lumo=52
     nosym = .true.
/
 
&ELECTRONS
    diagonalization='david'
    mixing_mode = 'plain'
    mixing_beta = 0.7
    conv_thr =  1.0d-9
    electron_maxstep =500
    use_gaussians = .true.

/

/
 
&IONS
  ion_dynamics = 'bfgs'
/
 
&CELL
/
 
ATOMIC_SPECIES
 H   1.00    h_pbe_v1.4.uspp.F.UPF
 C   12.00   c_pbe_v1.2.uspp.F.UPF
 
K_POINTS gamma

CELL_PARAMETERS angstrom
   18.68522100    0.00000000    0.00000000
    0.17227471   26.17960718    0.00000000
    0.75744653    2.67565873   15.57640494
ATOMIC_POSITIONS angstrom
C      11.333942000000000      7.760910000000000     15.441637999999999
C      10.106608000000000      4.777150000000000      1.152794000000000
C      10.800846999999999      5.170377000000000      2.319202000000000
C      10.330640000000001      4.860291000000000      3.595206000000000
C      11.026933000000000      5.256261000000000      4.781240000000000
C      10.543991000000000      4.931657000000000      6.023629000000000
C       9.331873999999999      4.188860000000000      6.160624000000000
C       8.629303999999999      3.791975000000000      5.050649000000000
C       9.092959000000000      4.108843000000000      3.734116000000000
C       8.396846999999999      3.718844000000000      2.589998000000000
C       8.861272000000000      4.029898000000000      1.292047000000000
H      12.270231000000001      8.320285000000000     15.337213999999999
H      11.735298000000000      5.732879000000000      2.213018000000000
H      11.956687000000001      5.825247000000000      4.676379000000000
H      11.091944000000000      5.244924000000000      6.918260000000000
H       8.961675000000000      3.937489000000000      7.160286000000000
H       7.697688000000000      3.225246000000000      5.151429000000000
H       7.464142000000000      3.153960000000000      2.699843000000000
C       8.166150999999999      3.641276000000000      0.134767000000000
C       9.393465000000001      6.625033000000000     14.423595000000001
C       8.699227000000000      6.231809000000000     13.257203000000001
C       9.169452000000000      6.541921000000000     11.981199000000000
C       8.473141000000000      6.145951000000000     10.795165000000001
C       8.956102000000000      6.470529000000000      9.552776000000000
C      10.168200000000001      7.213326000000000      9.415781000000001
C      10.870770000000000      7.610210000000000     10.525755999999999
C      10.407133000000000      7.293366000000000     11.842273000000000
C      11.103227000000000      7.683342000000000     12.986407000000000
C      10.638802000000000      7.372288000000000     14.284357999999999
H       7.229842000000000      3.081898000000000      0.239176000000000
H       7.764775000000000      5.669333000000000     13.363386999999999
H       7.543405000000000      5.576939000000000     10.900024999999999
H       8.408149000000000      6.157262000000000      8.658144999999999
H      10.538418000000000      7.464696000000000      8.416119000000000
H      11.802384999999999      8.176966000000000     10.424975999999999
H      12.035950000000000      8.248226000000001     12.876562000000000
