i&CONTROL
  title = '# pentacene - C22 H14'
  pseudo_dir = './'
  calculation = 'scf'
  nonadiabatic = .true.
/
 
&SYSTEM
  nat= 36
  ntyp= 2
  ibrav= 0
  ecutwfc = 40,
  ecutrho = 400
  nbnd = 65
    fde_kin_funct = 'revAPBEK'
    fde_split_mix = .true.
    fde_cell_split(1) = 0.33
    fde_cell_split(2) = 0.33
    fde_cell_split(3) = 1
    fde_nba_beg = 46 !homo=51
    fde_nba_end = 57 !lumo=52
     nosym = .true.
/
 
&ELECTRONS
    diagonalization='david'
    mixing_mode = 'plain'
    mixing_beta = 0.7
    conv_thr =  1.0d-9
    electron_maxstep =500
    use_gaussians = .true.

/

/
 
&IONS
  ion_dynamics = 'bfgs'
/
 
&CELL
/
 
ATOMIC_SPECIES
 H   1.00    h_pbe_v1.4.uspp.F.UPF
 C   12.00   c_pbe_v1.2.uspp.F.UPF
 
K_POINTS gamma

CELL_PARAMETERS angstrom
   18.68522100    0.00000000    0.00000000
    0.17227471   26.17960718    0.00000000
    0.75744653    2.67565873   15.57640494
ATOMIC_POSITIONS angstrom
C      17.562360999999999      7.760910000000000     15.441637999999999
C      16.335027000000000      4.777150000000000      1.152794000000000
C      17.029267000000001      5.170377000000000      2.319202000000000
C      16.559059999999999      4.860291000000000      3.595206000000000
C      17.255351999999998      5.256261000000000      4.781240000000000
C      16.772410000000001      4.931657000000000      6.023629000000000
C      15.560293000000000      4.188860000000000      6.160624000000000
C      14.857723000000000      3.791975000000000      5.050649000000000
C      15.321377999999999      4.108843000000000      3.734116000000000
C      14.625266000000000      3.718844000000000      2.589998000000000
C      15.089691000000000      4.029898000000000      1.292047000000000
H      18.498650999999999      8.320285000000000     15.337213999999999
H      17.963718000000000      5.732879000000000      2.213018000000000
H      18.185106999999999      5.825247000000000      4.676379000000000
H      17.320363000000000      5.244924000000000      6.918260000000000
H      15.190094000000000      3.937489000000000      7.160286000000000
H      13.926107999999999      3.225246000000000      5.151429000000000
H      13.692562000000001      3.153960000000000      2.699843000000000
C      14.394570000000000      3.641276000000000      0.134767000000000
C      15.621885000000001      6.625033000000000     14.423595000000001
C      14.927645999999999      6.231809000000000     13.257203000000001
C      15.397872000000000      6.541921000000000     11.981199000000000
C      14.701561000000000      6.145951000000000     10.795165000000001
C      15.184521000000000      6.470529000000000      9.552776000000000
C      16.396619000000001      7.213326000000000      9.415781000000001
C      17.099188999999999      7.610210000000000     10.525755999999999
C      16.635552000000001      7.293366000000000     11.842273000000000
C      17.331645999999999      7.683342000000000     12.986407000000000
C      16.867222000000002      7.372288000000000     14.284357999999999
H      13.458261000000000      3.081898000000000      0.239176000000000
H      13.993195000000000      5.669333000000000     13.363386999999999
H      13.771824000000001      5.576939000000000     10.900024999999999
H      14.636568000000000      6.157262000000000      8.658144999999999
H      16.766836999999999      7.464696000000000      8.416119000000000
H      18.030805000000001      8.176966000000000     10.424975999999999
H      18.264370000000000      8.248226000000001     12.876562000000000
