i&CONTROL
  title = '# pentacene - C22 H14'
  pseudo_dir = './'
  calculation = 'scf'
  nonadiabatic = .true.
/
 
&SYSTEM
  nat= 36
  ntyp= 2
  ibrav= 0
  ecutwfc = 40,
  ecutrho = 400
  nbnd = 65
    fde_kin_funct = 'revAPBEK'
    fde_split_mix = .true.
    fde_cell_split(1) = 0.33
    fde_cell_split(2) = 0.33
    fde_cell_split(3) = 1
    fde_nba_beg = 46 !homo=51
    fde_nba_end = 57 !lumo=52
     nosym = .true.
/
 
&ELECTRONS
    diagonalization='david'
    mixing_mode = 'plain'
    mixing_beta = 0.7
    conv_thr =  1.0d-9
    electron_maxstep =500
    use_gaussians = .true.

/

/
 
&IONS
  ion_dynamics = 'bfgs'
/
 
&CELL
/
 
ATOMIC_SPECIES
 H   1.00    h_pbe_v1.4.uspp.F.UPF
 C   12.00   c_pbe_v1.2.uspp.F.UPF
 
K_POINTS gamma

CELL_PARAMETERS angstrom
   18.68522100    0.00000000    0.00000000
    0.17227471   26.17960718    0.00000000
    0.75744653    2.67565873   15.57640494
ATOMIC_POSITIONS angstrom
C      11.391367000000001     16.487437000000000     15.441637999999999
C      10.164033000000000     13.503677000000000      1.152794000000000
C      10.858271999999999     13.896903999999999      2.319202000000000
C      10.388064999999999     13.586817999999999      3.595206000000000
C      11.084357000000001     13.982787999999999      4.781240000000000
C      10.601416000000000     13.658184000000000      6.023629000000000
C       9.389298999999999     12.915387000000001      6.160624000000000
C       8.686729000000000     12.518502000000000      5.050649000000000
C       9.150384000000001     12.835369999999999      3.734116000000000
C       8.454272000000000     12.445371000000000      2.589998000000000
C       8.918696000000001     12.756425000000000      1.292047000000000
H      12.327655999999999     17.046811999999999     15.337213999999999
H      11.792723000000001     14.459406000000000      2.213018000000000
H      12.014112000000001     14.551774000000000      4.676379000000000
H      11.149368000000001     13.971451000000000      6.918260000000000
H       9.019100000000000     12.664016000000000      7.160286000000000
H       7.755113000000000     11.951772999999999      5.151429000000000
H       7.521567000000000     11.880487000000000      2.699843000000000
C       8.223575000000000     12.367803000000000      0.134767000000000
C       9.450889999999999     15.351559999999999     14.423595000000001
C       8.756651000000000     14.958335999999999     13.257203000000001
C       9.226877000000000     15.268447999999999     11.981199000000000
C       8.530566000000000     14.872477999999999     10.795165000000001
C       9.013526000000001     15.197056000000000      9.552776000000000
C      10.225625000000001     15.939852999999999      9.415781000000001
C      10.928195000000001     16.336736999999999     10.525755999999999
C      10.464558000000000     16.019893000000000     11.842273000000000
C      11.160652000000001     16.409869000000000     12.986407000000000
C      10.696227000000000     16.098814999999998     14.284357999999999
H       7.287267000000000     11.808425000000000      0.239176000000000
H       7.822200000000000     14.395860000000001     13.363386999999999
H       7.600830000000000     14.303466000000000     10.900024999999999
H       8.465574000000000     14.883789000000000      8.658144999999999
H      10.595843000000000     16.191223000000001      8.416119000000000
H      11.859810000000000     16.903493000000001     10.424975999999999
H      12.093375000000000     16.974753000000000     12.876562000000000
