i&CONTROL
  title = '# pentacene - C22 H14'
  pseudo_dir = './'
  calculation = 'scf'
  nonadiabatic = .true.
/
 
&SYSTEM
  nat= 36
  ntyp= 2
  ibrav= 0
  ecutwfc = 40,
  ecutrho = 400
  nbnd = 65
    fde_kin_funct = 'revAPBEK'
    fde_split_mix = .true.
    fde_cell_split(1) = 0.33
    fde_cell_split(2) = 0.33
    fde_cell_split(3) = 1
    fde_nba_beg = 46 !homo=51
    fde_nba_end = 57 !lumo=52
     nosym = .true.
/
 
&ELECTRONS
    diagonalization='david'
    mixing_mode = 'plain'
    mixing_beta = 0.7
    conv_thr =  1.0d-9
    electron_maxstep =500
    use_gaussians = .true.

/

/
 
&IONS
  ion_dynamics = 'bfgs'
/
 
&CELL
/
 
ATOMIC_SPECIES
 H   1.00    h_pbe_v1.4.uspp.F.UPF
 C   12.00   c_pbe_v1.2.uspp.F.UPF
 
K_POINTS gamma

CELL_PARAMETERS angstrom
   18.68522100    0.00000000    0.00000000
    0.17227471   26.17960718    0.00000000
    0.75744653    2.67565873   15.57640494
ATOMIC_POSITIONS angstrom
C      12.378950000000000      9.218631000000000      6.136932000000000
C      12.198210000000000      9.199792000000000      3.706437000000000
H      11.981444000000000      9.505570000000001      7.115738000000000
C      11.706028000000000      9.574019000000000      4.996179000000000
C      11.517778000000000      9.526733999999999      2.534655000000000
C      11.995507999999999      9.140407000000000      1.263324000000000
H      10.775719000000000     10.149589000000001      5.051568000000000
H      10.580411000000000     10.091113000000000      2.602319000000000
C      11.309229999999999      9.456920000000000      0.080063000000000
C      12.544283000000000     11.743270000000001     14.394748000000000
C      11.859510999999999     12.063116000000001     13.201019000000001
C      12.346116000000000     11.683487000000000     11.950388999999999
C      11.672165000000000     12.019969000000000     10.733560000000001
C      12.188120000000000     11.651190000000000      9.517137000000000
H      10.373683000000000     10.023991000000001      0.143583000000000
H      10.923894000000001     12.630704000000000     13.264960000000000
H      10.735930000000000     12.585690000000000     10.793794000000000
H      11.663961000000000     11.926527999999999      8.596197000000000
C      14.476687999999999     10.671792000000000     15.496342000000000
C      13.241635000000000      8.385469000000001      1.181657000000000
C      13.926406999999999      8.065597000000000      2.375386000000000
C      13.439802000000000      8.445226000000000      3.626016000000000
C      14.113753000000001      8.108744000000000      4.842844000000000
C      13.597797999999999      8.477523000000000      6.059268000000000
H      15.412235000000001     10.104721000000000     15.432822000000000
H      14.862043000000000      7.498035000000000      2.311445000000000
H      15.050007000000001      7.543023000000000      4.782611000000000
H      14.121975000000001      8.202211000000000      6.980208000000000
C      14.079909000000001     10.554694000000000     10.580226000000000
C      14.268158000000000     10.601979000000000     13.041750000000000
C      13.790410000000000     10.988306000000000     14.313081000000000
H      15.010199000000000      9.979124000000001     10.524837000000000
H      15.205507000000001     10.037599999999999     12.974086000000000
C      13.406986000000000     10.910081999999999      9.439473000000000
C      13.587726999999999     10.928947000000001     11.869968000000000
H      13.804474000000001     10.623169000000001      8.460667000000001

