i&CONTROL
  title = '# pentacene - C22 H14'
  pseudo_dir = './'
  calculation = 'scf'
  nonadiabatic = .true.
/
 
&SYSTEM
  nat= 36
  ntyp= 2
  ibrav= 0
  ecutwfc = 40,
  ecutrho = 400
  nbnd = 65
    fde_kin_funct = 'revAPBEK'
    fde_split_mix = .true.
    fde_cell_split(1) = 0.33
    fde_cell_split(2) = 0.33
    fde_cell_split(3) = 1
    fde_nba_beg = 46 !homo=51
    fde_nba_end = 57 !lumo=52
     nosym = .true.
/
 
&ELECTRONS
    diagonalization='david'
    mixing_mode = 'plain'
    mixing_beta = 0.7
    conv_thr =  1.0d-9
    electron_maxstep =500
    use_gaussians = .true.

/

/
 
&IONS
  ion_dynamics = 'bfgs'
/
 
&CELL
/
 
ATOMIC_SPECIES
 H   1.00    h_pbe_v1.4.uspp.F.UPF
 C   12.00   c_pbe_v1.2.uspp.F.UPF
 
K_POINTS gamma

CELL_PARAMETERS angstrom
   18.68522100    0.00000000    0.00000000
    0.17227471   26.17960718    0.00000000
    0.75744653    2.67565873   15.57640494
ATOMIC_POSITIONS angstrom
C       2.077292000000000     19.398319000000001     15.496342000000000
C       0.842240000000000     17.111996000000001      1.181657000000000
C       1.527012000000000     16.792124000000001      2.375386000000000
C       1.040407000000000     17.171752999999999      3.626016000000000
C       1.714358000000000     16.835270999999999      4.842844000000000
C       1.198403000000000     17.204049999999999      6.059268000000000
H       3.012839000000000     18.831247999999999     15.432822000000000
H       2.462648000000000     16.224561999999999      2.311445000000000
H       2.650612000000000     16.269549999999999      4.782611000000000
H       1.722580000000000     16.928737999999999      6.980208000000000
C       1.680513000000000     19.281220999999999     10.580226000000000
C       1.868763000000000     19.328506000000001     13.041750000000000
C       1.391015000000000     19.714832999999999     14.313081000000000
H       2.610804000000000     18.705651000000000     10.524837000000000
H       2.806112000000000     18.764126999999998     12.974086000000000
C       1.007591000000000     19.636634999999998      9.439473000000000
C       1.188332000000000     19.655500000000000     11.869968000000000
H       1.405079000000000     19.349722000000000      8.460667000000001
C      18.664795000000002     17.945157999999999      6.136932000000000
C      18.484054000000000     17.926318999999999      3.706437000000000
H      18.267288000000001     18.232097000000000      7.115738000000000
C      17.991872000000001     18.300571999999999      4.996179000000000
C      17.803623000000002     18.253287000000000      2.534655000000000
C      18.281351999999998     17.866959999999999      1.263324000000000
H      17.061563000000000     18.876142000000002      5.051568000000000
H      16.866254999999999     18.817665999999999      2.602319000000000
C      17.595075000000001     18.183474000000000      0.080063000000000
C      18.830127000000001     20.469823000000002     14.394748000000000
C      18.145354999999999     20.789669000000000     13.201019000000001
C      18.631959999999999     20.410039999999999     11.950388999999999
C      17.958009000000001     20.746521999999999     10.733560000000001
C      18.473963999999999     20.377742999999999      9.517137000000000
H      16.659528000000002     18.750544999999999      0.143583000000000
H      17.209738000000002     21.357258000000002     13.264960000000000
H      17.021774000000001     21.312242999999999     10.793794000000000
H      17.949805999999999     20.653081000000000      8.596197000000000
