i&CONTROL
  title = '# pentacene - C22 H14'
  pseudo_dir = './'
  calculation = 'scf'
  nonadiabatic = .true.
/
 
&SYSTEM
  nat= 36
  ntyp= 2
  ibrav= 0
  ecutwfc = 40,
  ecutrho = 400
  nbnd = 65
    fde_kin_funct = 'revAPBEK'
    fde_split_mix = .true.
    fde_cell_split(1) = 0.33
    fde_cell_split(2) = 0.33
    fde_cell_split(3) = 1
    fde_nba_beg = 46 !homo=51
    fde_nba_end = 57 !lumo=52
     nosym = .true.
/
 
&ELECTRONS
    diagonalization='david'
    mixing_mode = 'plain'
    mixing_beta = 0.7
    conv_thr =  1.0d-9
    electron_maxstep =500
    use_gaussians = .true.

/

/
 
&IONS
  ion_dynamics = 'bfgs'
/
 
&CELL
/
 
ATOMIC_SPECIES
 H   1.00    h_pbe_v1.4.uspp.F.UPF
 C   12.00   c_pbe_v1.2.uspp.F.UPF
 
K_POINTS gamma

CELL_PARAMETERS angstrom
   18.68522100    0.00000000    0.00000000
    0.17227471   26.17960718    0.00000000
    0.75744653    2.67565873   15.57640494
ATOMIC_POSITIONS angstrom
C      12.436375000000000     17.945157999999999      6.136932000000000
C      12.255635000000000     17.926318999999999      3.706437000000000
H      12.038869000000000     18.232097000000000      7.115738000000000
C      11.763453000000000     18.300571999999999      4.996179000000000
C      11.575203000000000     18.253287000000000      2.534655000000000
C      12.052932999999999     17.866959999999999      1.263324000000000
H      10.833144000000001     18.876142000000002      5.051568000000000
H      10.637836000000000     18.817665999999999      2.602319000000000
C      11.366655000000000     18.183474000000000      0.080063000000000
C      12.601708000000000     20.469823000000002     14.394748000000000
C      11.916936000000000     20.789669000000000     13.201019000000001
C      12.403541000000001     20.410039999999999     11.950388999999999
C      11.729590000000000     20.746521999999999     10.733560000000001
C      12.245545000000000     20.377742999999999      9.517137000000000
H      10.431108000000000     18.750544999999999      0.143583000000000
H      10.981318999999999     21.357258000000002     13.264960000000000
H      10.793355000000000     21.312242999999999     10.793794000000000
H      11.721386000000001     20.653081000000000      8.596197000000000
C      14.534112000000000     19.398319000000001     15.496342000000000
C      13.299060000000001     17.111996000000001      1.181657000000000
C      13.983832000000000     16.792124000000001      2.375386000000000
C      13.497227000000001     17.171752999999999      3.626016000000000
C      14.171177999999999     16.835270999999999      4.842844000000000
C      13.655222999999999     17.204049999999999      6.059268000000000
H      15.469659000000000     18.831247999999999     15.432822000000000
H      14.919468000000000     16.224561999999999      2.311445000000000
H      15.107431999999999     16.269549999999999      4.782611000000000
H      14.179399999999999     16.928737999999999      6.980208000000000
C      14.137333999999999     19.281220999999999     10.580226000000000
C      14.325583000000000     19.328506000000001     13.041750000000000
C      13.847835000000000     19.714832999999999     14.313081000000000
H      15.067624000000000     18.705651000000000     10.524837000000000
H      15.262931999999999     18.764126999999998     12.974086000000000
C      13.464411000000000     19.636634999999998      9.439473000000000
C      13.645152000000000     19.655500000000000     11.869968000000000
H      13.861898999999999     19.349722000000000      8.460667000000001
