i&CONTROL
  title = '# pentacene - C22 H14'
  pseudo_dir = './'
  calculation = 'scf'
  nonadiabatic = .true.
/
 
&SYSTEM
  nat= 36
  ntyp= 2
  ibrav= 0
  ecutwfc = 40,
  ecutrho = 400
  nbnd = 65
    fde_kin_funct = 'revAPBEK'
    fde_split_mix = .true.
    fde_cell_split(1) = 0.33
    fde_cell_split(2) = 0.33
    fde_cell_split(3) = 1
    fde_nba_beg = 46 !homo=51
    fde_nba_end = 57 !lumo=52
     nosym = .true.
/
 
&ELECTRONS
    diagonalization='david'
    mixing_mode = 'plain'
    mixing_beta = 0.7
    conv_thr =  1.0d-9
    electron_maxstep =500
    use_gaussians = .true.

/

/
 
&IONS
  ion_dynamics = 'bfgs'
/
 
&CELL
/
 
ATOMIC_SPECIES
 H   1.00    h_pbe_v1.4.uspp.F.UPF
 C   12.00   c_pbe_v1.2.uspp.F.UPF
 
K_POINTS gamma

CELL_PARAMETERS angstrom
   18.68522100    0.00000000    0.00000000
    0.17227471   26.17960718    0.00000000
    0.75744653    2.67565873   15.57640494
ATOMIC_POSITIONS angstrom
C       5.220391000000000     25.213989999999999     15.441637999999999
C       3.993057000000000     22.230229999999999      1.152794000000000
C       4.687296000000000     22.623456999999998      2.319202000000000
C       4.217090000000000     22.313371000000000      3.595206000000000
C       4.913382000000000     22.709340999999998      4.781240000000000
C       4.430440000000000     22.384737000000001      6.023629000000000
C       3.218323000000000     21.641940000000002      6.160624000000000
C       2.515753000000000     21.245056000000002      5.050649000000000
C       2.979408000000000     21.561924000000001      3.734116000000000
C       2.283296000000000     21.171924000000001      2.589998000000000
C       2.747721000000000     21.482977999999999      1.292047000000000
H       6.156680000000000     25.773364999999998     15.337213999999999
H       5.621748000000000     23.185959000000000      2.213018000000000
H       5.843136000000000     23.278327000000001      4.676379000000000
H       4.978393000000000     22.698004000000001      6.918260000000000
H       2.848124000000000     21.390570000000000      7.160286000000000
H       1.584138000000000     20.678325999999998      5.151429000000000
H       1.350591000000000     20.607040000000001      2.699843000000000
C       2.052600000000000     21.094356000000001      0.134767000000000
C       3.279914000000000     24.078112999999998     14.423595000000001
C       2.585676000000000     23.684888999999998     13.257203000000001
C       3.055901000000000     23.995000999999998     11.981199000000000
C       2.359590000000000     23.599032000000001     10.795165000000001
C       2.842551000000000     23.923608999999999      9.552776000000000
C       4.054649000000000     24.666405999999998      9.415781000000001
C       4.757219000000000     25.063291000000000     10.525755999999999
C       4.293582000000000     24.746445999999999     11.842273000000000
C       4.989676000000000     25.136422000000000     12.986407000000000
C       4.525251000000000     24.825368000000001     14.284357999999999
H       1.116291000000000     20.534979000000000      0.239176000000000
H       1.651225000000000     23.122413000000002     13.363386999999999
H       1.429854000000000     23.030018999999999     10.900024999999999
H       2.294598000000000     23.610341999999999      8.658144999999999
H       4.424867000000000     24.917777000000001      8.416119000000000
H       5.688835000000000     25.630046000000000     10.424975999999999
H       5.922399000000000     25.701305999999999     12.876562000000000
