&CONTROL
  title = '# pentacene - C22 H14'
  pseudo_dir = './'
    calculation = 'md'
    nstep = 1800,
    dt = 20,
    nonadiabatic = .true.
/
 
&SYSTEM
  nat= 36
  ntyp= 2
  ibrav= 0
  ecutwfc = 40,
  ecutrho = 400
  nbnd = 65
  occupations =  'smearing',
  smearing    =  'gaussian',
  degauss     =  0.03,
  vdw_corr = 'dft-d2',
    fde_kin_funct = 'revAPBEK'
    fde_split_mix = .true.
    fde_cell_split(1) = 0.5
    fde_cell_split(2) = 0.5
    fde_cell_split(3) = 1
    fde_nba_beg = 46 !homo=51
    fde_nba_end = 57 !lumo=52
     nosym = .true.
/
 
&ELECTRONS
    diagonalization='david'
    mixing_mode = 'plain'
    mixing_beta = 0.7
    conv_thr =  1.0d-9
    electron_maxstep =500
    use_gaussians = .true.

/

/
 
&IONS
  ion_dynamics = 'verlet'
  ion_temperature = 'rescaling'
  tempw = 300

/
 
&CELL
/
 
ATOMIC_SPECIES
 H   1.00    h_pbe_v1.4.uspp.F.UPF
 C   12.00   c_pbe_v1.2.uspp.F.UPF
 
K_POINTS gamma

CELL_PARAMETERS angstrom
   12.45681300    0.00000000    0.00000000
    0.11484980   17.45307112    0.00000000
    0.75744653    2.67565873   15.57640494

ATOMIC_POSITIONS angstrom
C       6.150537000000000      9.218640000000001      6.136932000000000
C       5.969796000000000      9.199783000000000      3.706437000000000
H       5.753049000000000      9.505561000000000      7.115738000000000
C       5.477621000000000      9.574026999999999      4.996179000000000
C       5.289377000000000      9.526751000000001      2.534655000000000
C       5.767113000000000      9.140416000000000      1.263324000000000
H       4.547312000000000     10.149615000000001      5.051568000000000
H       4.352016000000000     10.091130000000000      2.602319000000000
C       5.080836000000000      9.456929000000001      0.080063000000000
C       6.315882000000000     11.743278000000000     14.394748000000000
C       5.631110000000000     12.063124999999999     13.201019000000001
C       6.117708000000000     11.683487000000000     11.950388999999999
C       5.443770000000000     12.019995000000000     10.733560000000001
C       5.959731000000000     11.651206999999999      9.517137000000000
H       4.145289000000000     10.023999999999999      0.143583000000000
H       4.695486000000000     12.630704000000000     13.264960000000000
H       4.507522000000000     12.585698000000001     10.793794000000000
H       5.435548000000000     11.926527999999999      8.596197000000000
C       8.248274000000000     10.671801000000000     15.496342000000000
C       7.013228000000000      8.385452000000001      1.181657000000000
C       7.698000000000000      8.065605000000000      2.375386000000000
C       7.211389000000000      8.445226000000000      3.626016000000000
C       7.885352000000000      8.108752000000001      4.842844000000000
C       7.369378000000000      8.477523000000000      6.059268000000000
H       9.183833000000000     10.104730000000000     15.432822000000000
H       8.633623000000000      7.498026000000000      2.311445000000000
H       8.821586999999999      7.543031000000000      4.782611000000000
H       7.893549000000000      8.202202000000000      6.980208000000000
C       7.851489000000000     10.554702000000001     10.580226000000000
C       8.039732000000001     10.601979000000000     13.041750000000000
C       7.561996000000000     10.988314000000001     14.313081000000000
H       8.781798000000000      9.979115000000000     10.524837000000000
H       8.977081000000000     10.037599999999999     12.974086000000000
C       7.178560000000000     10.910090000000000      9.439473000000000
C       7.359301000000000     10.928947000000001     11.869968000000000
H       7.576061000000000     10.623169000000001      8.460667000000001
