&CONTROL
  title = '# pentacene - C22 H14'
  pseudo_dir = './'
    calculation = 'md'
    nstep = 1800,
    dt = 20,
    nonadiabatic = .true.
/
 
&SYSTEM
  nat= 36
  ntyp= 2
  ibrav= 0
  ecutwfc = 40,
  ecutrho = 400
  nbnd = 65
  occupations =  'smearing',
  smearing    =  'gaussian',
  degauss     =  0.03,
  vdw_corr = 'dft-d2',
    fde_kin_funct = 'revAPBEK'
    fde_split_mix = .true.
    fde_cell_split(1) = 0.5
    fde_cell_split(2) = 0.5
    fde_cell_split(3) = 1
    fde_nba_beg = 46 !homo=51
    fde_nba_end = 57 !lumo=52
     nosym = .true.
/
 
&ELECTRONS
    diagonalization='david'
    mixing_mode = 'plain'
    mixing_beta = 0.7
    conv_thr =  1.0d-9
    electron_maxstep =500
    use_gaussians = .true.

/

/
 
&IONS
  ion_dynamics = 'verlet'
  ion_temperature = 'rescaling'
  tempw = 300

/
 
&CELL
/
 
ATOMIC_SPECIES
 H   1.00    h_pbe_v1.4.uspp.F.UPF
 C   12.00   c_pbe_v1.2.uspp.F.UPF
 
K_POINTS gamma

CELL_PARAMETERS angstrom
   12.45681300    0.00000000    0.00000000
    0.11484980   17.45307112    0.00000000
    0.75744653    2.67565873   15.57640494

ATOMIC_POSITIONS angstrom
C       0.892729000000000      2.183555000000000      9.439473000000000
C       1.073469000000000      2.202411000000000     11.869968000000000
H       1.290229000000000      1.896633000000000      8.460667000000001
C       2.077292000000000     19.398336000000000     15.496342000000000
C       0.842246000000000     17.111986999999999      1.181657000000000
C       1.527018000000000     16.792141000000001      2.375386000000000
C       1.040407000000000     17.171761000000000      3.626016000000000
C       1.714370000000000     16.835287999999998      4.842844000000000
C       1.198396000000000     17.204059000000001      6.059268000000000
H       3.012852000000000     18.831265999999999     15.432822000000000
H       2.462641000000000     16.224561000000001      2.311445000000000
H       2.650605000000000     16.269566999999999      4.782611000000000
H       1.722568000000000     16.928737000000002      6.980208000000000
C       1.565657000000000      1.828167000000000     10.580226000000000
C       1.868751000000000     19.328513999999998     13.041750000000000
C       1.391015000000000     19.714849999999998     14.313081000000000
H       2.610816000000000     18.705649999999999     10.524837000000000
H       2.806099000000000     18.764135000000000     12.974086000000000
C      11.763451999999999     18.300563000000000      4.996179000000000
C      11.460359000000000      0.800215000000000      2.534655000000000
C      11.938095000000001      0.413880000000000      1.263324000000000
H      10.718292999999999      1.423079000000000      5.051568000000000
H      10.522997999999999      1.364595000000000      2.602319000000000
C      11.251817000000001      0.730393000000000      0.080063000000000
C      12.486863000000000      3.016742000000000     14.394748000000000
C      11.802091000000001      3.336589000000000     13.201019000000001
C      12.288690000000001      2.956951000000000     11.950388999999999
C      11.614751999999999      3.293459000000000     10.733560000000001
C      12.130713000000000      2.924671000000000      9.517137000000000
H      10.316269999999999      1.297464000000000      0.143583000000000
H      10.866467999999999      3.904169000000000     13.264960000000000
H      10.678504000000000      3.859163000000000     10.793794000000000
H      11.606529000000000      3.199992000000000      8.596197000000000
C      12.436368000000000     17.945174999999999      6.136932000000000
C      12.255628000000000     17.926318999999999      3.706437000000000
H      12.038880000000001     18.232095999999999      7.115738000000000
