&CONTROL
  title = '# pentacene - C22 H14'
  pseudo_dir = './'
  calculation = 'scf'
  nonadiabatic = .true.
/
 
&SYSTEM
  nat= 36
  ntyp= 2
  ibrav= 0
  ecutwfc = 40,
  ecutrho = 400
  nbnd = 65
    fde_kin_funct = 'revAPBEK'
    fde_split_mix = .true.
    fde_cell_split(1) = 0.8
    fde_cell_split(2) = 1
    fde_cell_split(3) = 1
    fde_nba_beg = 46 !homo=51
    fde_nba_end = 57 !lumo=52
     nosym = .true.
/
 
&ELECTRONS
    diagonalization='david'
    mixing_mode = 'plain'
    mixing_beta = 0.7
    conv_thr =  1.0d-9
    electron_maxstep =500
    use_gaussians = .true.

/

/
 
&IONS
   ion_dynamics = 'bfgs'
/
 
&CELL
/
 
ATOMIC_SPECIES
 H   1.00    h_pbe_v1.4.uspp.F.UPF
 C   12.00   c_pbe_v1.2.uspp.F.UPF
 
K_POINTS gamma



CELL_PARAMETERS angstrom
   12.45681200    0.00000000    0.00000000
    0.05742490    8.72653506    0.00000000
    0.75744648    2.67565856   15.57640395
ATOMIC_POSITIONS angstrom
C       2.019867000000000     10.671791000000001     15.496340999999999
C       0.784821000000000      8.385460000000000      1.181657000000000
C       1.469593000000000      8.065605000000000      2.375386000000000
C       0.982982000000000      8.445225000000001      3.626015000000000
C       1.656945000000000      8.108743000000000      4.842844000000000
C       1.140971000000000      8.477531000000001      6.059268000000000
H       2.955426000000000     10.104729000000001     15.432821000000001
H       2.405216000000000      7.498025000000000      2.311445000000000
H       2.593180000000000      7.543022000000000      4.782610000000000
H       1.665143000000000      8.202201000000001      6.980207000000000
C       0.892729000000000      2.183563000000000      9.439472000000000
C       1.565657000000000      1.828167000000000     10.580226000000000
C       1.073469000000000      2.202411000000000     11.869967000000001
C       1.811326000000000     10.601978000000001     13.041748999999999
C       1.333590000000000     10.988314000000001     14.313079999999999
H       1.290229000000000      1.896633000000000      8.460666000000000
H       2.553391000000000      9.979123000000000     10.524836000000001
H       2.748674000000000     10.037599000000000     12.974085000000001
C      12.378942000000000      9.218629999999999      6.136932000000000
C      11.706026000000000      9.574018000000001      4.996178000000000
C      12.198202000000000      9.199783000000000      3.706436000000000
C      11.460357999999999      0.800215000000000      2.534655000000000
C      11.938094000000000      0.413871000000000      1.263324000000000
H      11.981453999999999      9.505559999999999      7.115737000000000
H      10.718292000000000      1.423071000000000      5.051568000000000
H      10.522997000000000      1.364595000000000      2.602319000000000
C      11.251816000000000      0.730402000000000      0.080063000000000
C      12.486862000000000      3.016734000000000     14.394747000000001
C      11.802090000000000      3.336589000000000     13.201017999999999
C      12.288689000000000      2.956960000000000     11.950388000000000
C      11.614751000000000      3.293450000000000     10.733560000000001
C      12.130712000000001      2.924662000000000      9.517136000000001
H      10.316269000000000      1.297464000000000      0.143583000000000
H      10.866467000000000      3.904168000000000     13.264958999999999
H      10.678502999999999      3.859171000000000     10.793794000000000
H      11.606528000000001      3.199992000000000      8.596197000000000

